243/surrogate_problem/sol/surrogate2_44.sol
# Solution for model problem_
# Objective value = 2.0256691882611162e+05
x(0_0) 1
x(0_1) 0
x(0_2) 0
x(0_3) 0
x(0_4) 0
x(0_5) 0
x(0_6) 0
x(0_7) 0
x(0_8) 0
x(0_9) 0
x(0_10) 0
x(0_11) 0
x(0_12) 0
x(0_13) 0
x(0_14) 0
x(0_15) 0
x(1_16) 0
x(1_17) 0
x(1_18) 0
x(1_19) 0
x(1_20) 0
x(1_21) 0
x(1_22) 0
x(1_23) 0
x(1_24) 0
x(1_25) 0
x(1_26) 1
x(1_27) 0
x(1_28) 0
x(1_29) 0
x(1_30) 0
x(1_31) 0
x(1_32) 0
x(1_33) 0
x(1_34) 0
x(2_35) 0
x(2_36) 0
x(2_37) 0
x(2_38) 0
x(2_39) 0
x(2_40) 1
x(2_41) 0
x(2_42) 0
x(2_43) 0
x(2_44) 0
x(2_45) 0
x(2_46) 0
x(2_47) 0
x(2_48) 0
x(2_49) 0
x(3_50) 1
x(3_51) 0
x(3_52) 0
x(3_53) 0
x(3_54) 0
x(3_55) 0
x(3_56) 0
x(3_57) 0
x(3_58) 0
x(3_59) 0
x(3_60) 0
x(3_61) 0
x(4_62) 1
x(4_63) 0
x(4_64) 0
x(4_65) 0
x(4_66) 0
x(4_67) 0
x(4_68) 0
x(4_69) 0
x(4_70) 0
x(4_71) 0
x(4_72) 0
x(4_73) 0
x(4_74) 0
x(5_75) 0
x(5_76) 0
x(5_77) 0
x(5_78) 0
x(5_79) 0
x(5_80) 0
x(5_81) 0
x(5_82) 0
x(5_83) 0
x(5_84) 0
x(5_85) 0
x(5_86) 0
x(5_87) 0
x(5_88) 0
x(5_89) 1
x(5_90) 0
x(6_91) 1
x(6_92) 0
x(6_93) 0
x(6_94) 0
x(6_95) 0
x(6_96) 0
x(6_97) 0
x(6_98) 0
x(6_99) 0
x(6_100) 0
x(6_101) 0
x(6_102) 0
x(7_103) 0
x(7_104) 0
x(7_105) 0
x(7_106) 0
x(7_107) 0
x(7_108) 0
x(7_109) 0
x(7_110) 0
x(7_111) 0
x(7_112) 0
x(7_113) 0
x(7_114) 0
x(7_115) 0
x(7_116) 0
x(7_117) 1
x(7_118) 0
x(7_119) 0
x(7_120) 0
x(7_121) 0
x(7_122) 0
x(8_123) 1
x(8_124) 0
x(8_125) 0
x(8_126) 0
x(8_127) 0
x(8_128) 0
x(8_129) 0
x(8_130) 0
x(8_131) 0
x(8_132) 0
x(8_133) 0
x(9_134) 0
x(9_135) 0
x(9_136) 0
x(9_137) 0
x(9_138) 0
x(9_139) 0
x(9_140) 1
x(9_141) 0
x(9_142) 0
x(9_143) 0
x(10_144) 0
x(10_145) 0
x(10_146) 0
x(10_147) 0
x(10_148) 0
x(10_149) 0
x(10_150) 0
x(10_151) 1
x(10_152) 0
x(10_153) 0
x(10_154) 0
x(10_155) 0
x(10_156) 0
x(10_157) 0
x(10_158) 0
x(10_159) 0
x(11_160) 0
x(11_161) 0
x(11_162) 0
x(11_163) 0
x(11_164) 0
x(11_165) 0
x(11_166) 0
x(11_167) 0
x(11_168) 0
x(11_169) 0
x(11_170) 0
x(11_171) 0
x(11_172) 0
x(11_173) 0
x(11_174) 0
x(11_175) 1
x(12_176) 0
x(12_177) 0
x(12_178) 0
x(12_179) 0
x(12_180) 0
x(12_181) 0
x(12_182) 0
x(12_183) 0
x(12_184) 0
x(12_185) 0
x(12_186) 0
x(12_187) 1
x(12_188) 0
x(12_189) 0
x(13_190) 0
x(13_191) 0
x(13_192) 0
x(13_193) 0
x(13_194) 0
x(13_195) 0
x(13_196) 0
x(13_197) 0
x(13_198) 0
x(13_199) 0
x(13_200) 0
x(13_201) 0
x(13_202) 0
x(13_203) 1
x(13_204) 0
x(13_205) 0
x(13_206) 0
x(13_207) 0
x(14_208) 0
x(14_209) 0
x(14_210) 0
x(14_211) 0
x(14_212) 0
x(14_213) 0
x(14_214) 0
x(14_215) 0
x(14_216) 0
x(14_217) 0
x(14_218) 0
x(14_219) 1
x(14_220) 0
x(14_221) 0
x(14_222) 0
x(14_223) 0
x(14_224) 0
x(14_225) 0
x(15_226) 0
x(15_227) 0
x(15_228) 0
x(15_229) 0
x(15_230) 0
x(15_231) 0
x(15_232) 0
x(15_233) 0
x(15_234) 0
x(15_235) 0
x(15_236) 1
x(15_237) 0
x(15_238) 0
x(15_239) 0
x(15_240) 0
x(15_241) 0
x(15_242) 0
x(15_243) 0
x(15_244) 0
x(16_245) 0
x(16_246) 0
x(16_247) 0
x(16_248) 0
x(16_249) 0
x(16_250) 0
x(16_251) 0
x(16_252) 0
x(16_253) 0
x(16_254) 0
x(16_255) 1
x(16_256) 0
x(17_257) 0
x(17_258) 0
x(17_259) 0
x(17_260) 1
x(17_261) 0
x(17_262) 0
x(17_263) 0
x(17_264) 0
x(17_265) 0
x(17_266) 0
x(17_267) 0
x(17_268) 0
x(18_269) 0
x(18_270) 0
x(18_271) 0
x(18_272) 0
x(18_273) 0
x(18_274) 1
x(18_275) 0
x(18_276) 0
x(18_277) 0
x(18_278) 0
x(18_279) 0
x(18_280) 0
x(18_281) 0
x(18_282) 0
x(18_283) 0
x(19_284) 0
x(19_285) 0
x(19_286) 0
x(19_287) 0
x(19_288) 0
x(19_289) 0
x(19_290) 0
x(19_291) 0
x(19_292) 1
x(19_293) 0
x(19_294) 0
x(19_295) 0
x(20_296) 0
x(20_297) 0
x(20_298) 0
x(20_299) 0
x(20_300) 0
x(20_301) 0
x(20_302) 0
x(20_303) 1
x(20_304) 0
x(20_305) 0
x(20_306) 0
x(20_307) 0
x(20_308) 0
x(20_309) 0
x(21_310) 0
x(21_311) 0
x(21_312) 0
x(21_313) 0
x(21_314) 0
x(21_315) 0
x(21_316) 0
x(21_317) 1
x(21_318) 0
x(21_319) 0
x(21_320) 0
x(21_321) 0
x(21_322) 0
x(21_323) 0
x(21_324) 0
x(22_325) 0
x(22_326) 0
x(22_327) 0
x(22_328) 0
x(22_329) 1
x(22_330) 0
x(22_331) 0
x(22_332) 0
x(22_333) 0
x(22_334) 0
x(22_335) 0
x(22_336) 0
x(23_337) 0
x(23_338) 0
x(23_339) 0
x(23_340) 0
x(23_341) 0
x(23_342) 0
x(23_343) 1
x(23_344) 0
x(23_345) 0
x(23_346) 0
x(23_347) 0
x(23_348) 0
x(23_349) 0
x(23_350) 0
x(23_351) 0
x(23_352) 0
x(24_353) 0
x(24_354) 0
x(24_355) 0
x(24_356) 0
x(24_357) 0
x(24_358) 0
x(24_359) 0
x(24_360) 0
x(24_361) 0
x(24_362) 0
x(24_363) 0
x(24_364) 0
x(24_365) 0
x(24_366) 0
x(24_367) 0
x(24_368) 0
x(24_369) 1
x(24_370) 0
x(24_371) 0
x(24_372) 0
x(25_373) 0
x(25_374) 0
x(25_375) 0
x(25_376) 0
x(25_377) 1
x(25_378) 0
x(25_379) 0
x(25_380) 0
x(25_381) 0
x(25_382) 0
x(25_383) 0
x(25_384) 0
x(25_385) 0
x(25_386) 0
x(26_387) 0
x(26_388) 0
x(26_389) 0
x(26_390) 0
x(26_391) 0
x(26_392) 0
x(26_393) 0
x(26_394) 0
x(26_395) 0
x(26_396) 0
x(26_397) 0
x(26_398) 0
x(26_399) 0
x(26_400) 0
x(26_401) 0
x(26_402) 1
x(26_403) 0
x(26_404) 0
x(26_405) 0
x(27_406) 0
x(27_407) 0
x(27_408) 0
x(27_409) 0
x(27_410) 0
x(27_411) 0
x(27_412) 0
x(27_413) 0
x(27_414) 0
x(27_415) 0
x(27_416) 1
x(27_417) 0
x(27_418) 0
x(27_419) 0
x(27_420) 0
x(27_421) 0
x(27_422) 0
x(27_423) 0
x(28_424) 0
x(28_425) 0
x(28_426) 0
x(28_427) 0
x(28_428) 1
x(28_429) 0
x(28_430) 0
x(28_431) 0
x(28_432) 0
x(28_433) 0
x(28_434) 0
x(28_435) 0
x(28_436) 0
x(28_437) 0
x(29_438) 0
x(29_439) 0
x(29_440) 1
x(29_441) 0
x(29_442) 0
x(29_443) 0
x(29_444) 0
x(29_445) 0
x(29_446) 0
x(29_447) 0
x(29_448) 0
x(29_449) 0
x(29_450) 0
x(30_451) 0
x(30_452) 1
x(30_453) 0
x(30_454) 0
x(30_455) 0
x(30_456) 0
x(30_457) 0
x(30_458) 0
x(30_459) 0
x(30_460) 0
x(30_461) 0
x(30_462) 0
x(30_463) 0
x(30_464) 0
x(30_465) 0
x(30_466) 0
x(30_467) 0
x(30_468) 0
x(30_469) 0
x(31_470) 0
x(31_471) 0
x(31_472) 0
x(31_473) 0
x(31_474) 0
x(31_475) 0
x(31_476) 0
x(31_477) 0
x(31_478) 0
x(31_479) 0
x(31_480) 0
x(31_481) 0
x(31_482) 1
x(31_483) 0
x(32_484) 1
x(32_485) 0
x(32_486) 0
x(32_487) 0
x(32_488) 0
x(32_489) 0
x(32_490) 0
x(32_491) 0
x(32_492) 0
x(32_493) 0
x(32_494) 0
x(32_495) 0
x(32_496) 0
x(32_497) 0
x(32_498) 0
x(32_499) 0
x(32_500) 0
x(33_501) 0
x(33_502) 0
x(33_503) 0
x(33_504) 0
x(33_505) 1
x(33_506) 0
x(33_507) 0
x(33_508) 0
x(33_509) 0
x(33_510) 0
x(33_511) 0
x(33_512) 0
x(33_513) 0
x(33_514) 0
x(33_515) 0
x(34_516) 0
x(34_517) 0
x(34_518) 0
x(34_519) 0
x(34_520) 0
x(34_521) 0
x(34_522) 0
x(34_523) 0
x(34_524) 0
x(34_525) 1
x(34_526) 0
x(35_527) 1
x(35_528) 0
x(35_529) 0
x(35_530) 0
x(35_531) 0
x(35_532) 0
x(35_533) 0
x(35_534) 0
x(35_535) 0
x(35_536) 0
x(36_537) 0
x(36_538) 0
x(36_539) 0
x(36_540) 0
x(36_541) 0
x(36_542) 0
x(36_543) 0
x(36_544) 0
x(36_545) 0
x(36_546) 0
x(36_547) 1
x(36_548) 0
x(36_549) 0
x(36_550) 0
x(36_551) 0
x(36_552) 0
x(36_553) 0
x(36_554) 0
x(37_555) 0
x(37_556) 0
x(37_557) 0
x(37_558) 0
x(37_559) 0
x(37_560) 0
x(37_561) 1
x(37_562) 0
x(37_563) 0
x(37_564) 0
x(37_565) 0
x(37_566) 0
x(38_567) 0
x(38_568) 0
x(38_569) 1
x(38_570) 0
x(38_571) 0
x(38_572) 0
x(38_573) 0
x(38_574) 0
x(38_575) 0
x(38_576) 0
x(38_577) 0
x(38_578) 0
x(38_579) 0
x(38_580) 0
x(39_581) 0
x(39_582) 0
x(39_583) 0
x(39_584) 0
x(39_585) 0
x(39_586) 0
x(39_587) 0
x(39_588) 0
x(39_589) 0
x(39_590) 0
x(39_591) 0
x(39_592) 0
x(39_593) 1
x(39_594) 0
x(39_595) 0
x(39_596) 0
x(40_597) 0
x(40_598) 0
x(40_599) 0
x(40_600) 0
x(40_601) 0
x(40_602) 0
x(40_603) 0
x(40_604) 0
x(40_605) 0
x(40_606) 0
x(40_607) 0
x(40_608) 0
x(40_609) 0
x(40_610) 0
x(40_611) 0
x(40_612) 0
x(40_613) 1
x(41_614) 0
x(41_615) 0
x(41_616) 0
x(41_617) 0
x(41_618) 0
x(41_619) 0
x(41_620) 0
x(41_621) 0
x(41_622) 0
x(41_623) 0
x(41_624) 1
x(41_625) 0
x(41_626) 0
x(41_627) 0
x(42_628) 0
x(42_629) 0
x(42_630) 0
x(42_631) 0
x(42_632) 0
x(42_633) 1
x(42_634) 0
x(42_635) 0
x(42_636) 0
x(42_637) 0
x(42_638) 0
x(42_639) 0
x(42_640) 0
x(42_641) 0
x(42_642) 0
x(43_643) 0
x(43_644) 0
x(43_645) 0
x(43_646) 0
x(43_647) 0
x(43_648) 0
x(43_649) 1
x(43_650) 0
x(43_651) 0
x(43_652) 0
x(44_653) 0
x(44_654) 0
x(44_655) 0
x(44_656) 0
x(44_657) 0
x(44_658) 0
x(44_659) 0
x(44_660) 0
x(44_661) 0
x(44_662) 1
x(45_663) 0
x(45_664) 0
x(45_665) 0
x(45_666) 0
x(45_667) 0
x(45_668) 0
x(45_669) 0
x(45_670) 0
x(45_671) 0
x(45_672) 0
x(45_673) 0
x(45_674) 0
x(45_675) 0
x(45_676) 0
x(45_677) 0
x(45_678) 1
x(45_679) 0
x(46_680) 0
x(46_681) 0
x(46_682) 0
x(46_683) 0
x(46_684) 0
x(46_685) 0
x(46_686) 0
x(46_687) 0
x(46_688) 0
x(46_689) 0
x(46_690) 0
x(46_691) 0
x(46_692) 0
x(46_693) 1
x(46_694) 0
x(46_695) 0
x(46_696) 0
x(46_697) 0
x(47_698) 0
x(47_699) 1
x(47_700) 0
x(47_701) 0
x(47_702) 0
x(47_703) 0
x(47_704) 0
x(47_705) 0
x(47_706) 0
x(47_707) 0
x(47_708) 0
x(47_709) 0
x(47_710) 0
x(48_711) 0
x(48_712) 0
x(48_713) 0
x(48_714) 0
x(48_715) 0
x(48_716) 0
x(48_717) 0
x(48_718) 0
x(48_719) 0
x(48_720) 1
x(48_721) 0
x(48_722) 0
x(48_723) 0
x(48_724) 0
x(48_725) 0
x(49_726) 0
x(49_727) 0
x(49_728) 0
x(49_729) 0
x(49_730) 0
x(49_731) 0
x(49_732) 0
x(49_733) 0
x(49_734) 0
x(49_735) 0
x(49_736) 0
x(49_737) 0
x(49_738) 0
x(49_739) 0
x(49_740) 1
x(49_741) 0
x(49_742) 0
x(50_743) 0
x(50_744) 0
x(50_745) 0
x(50_746) 0
x(50_747) 0
x(50_748) 0
x(50_749) 0
x(50_750) 1
x(50_751) 0
x(50_752) 0
x(50_753) 0
x(50_754) 0
x(50_755) 0
x(50_756) 0
x(50_757) 0
x(50_758) 0
x(50_759) 0
x(50_760) 0
x(51_761) 0
x(51_762) 0
x(51_763) 1
x(51_764) 0
x(51_765) 0
x(51_766) 0
x(51_767) 0
x(51_768) 0
x(51_769) 0
x(51_770) 0
x(51_771) 0
x(51_772) 0
x(51_773) 0
x(51_774) 0
x(52_775) 0
x(52_776) 0
x(52_777) 0
x(52_778) 0
x(52_779) 0
x(52_780) 0
x(52_781) 0
x(52_782) 0
x(52_783) 0
x(52_784) 0
x(52_785) 0
x(52_786) 0
x(52_787) 0
x(52_788) 1
x(52_789) 0
x(52_790) 0
x(52_791) 0
x(52_792) 0
x(52_793) 0
x(52_794) 0
x(53_795) 0
x(53_796) 0
x(53_797) 0
x(53_798) 0
x(53_799) 0
x(53_800) 0
x(53_801) 1
x(53_802) 0
x(53_803) 0
x(53_804) 0
x(53_805) 0
x(53_806) 0
x(53_807) 0
x(53_808) 0
x(53_809) 0
x(53_810) 0
x(53_811) 0
x(53_812) 0
x(53_813) 0
x(54_814) 0
x(54_815) 0
x(54_816) 0
x(54_817) 0
x(54_818) 0
x(54_819) 0
x(54_820) 0
x(54_821) 0
x(54_822) 0
x(54_823) 0
x(54_824) 0
x(54_825) 0
x(54_826) 0
x(54_827) 1
x(55_828) 0
x(55_829) 0
x(55_830) 0
x(55_831) 0
x(55_832) 0
x(55_833) 0
x(55_834) 0
x(55_835) 0
x(55_836) 0
x(55_837) 0
x(55_838) 0
x(55_839) 1
x(55_840) 0
x(55_841) 0
x(56_842) 0
x(56_843) 0
x(56_844) 1
x(56_845) 0
x(56_846) 0
x(56_847) 0
x(56_848) 0
x(56_849) 0
x(56_850) 0
x(56_851) 0
x(56_852) 0
x(56_853) 0
x(57_854) 0
x(57_855) 0
x(57_856) 0
x(57_857) 1
x(57_858) 0
x(57_859) 0
x(57_860) 0
x(57_861) 0
x(57_862) 0
x(57_863) 0
x(57_864) 0
x(57_865) 0
x(57_866) 0
x(57_867) 0
x(57_868) 0
x(58_869) 0
x(58_870) 0
x(58_871) 0
x(58_872) 0
x(58_873) 0
x(58_874) 0
x(58_875) 0
x(58_876) 0
x(58_877) 0
x(58_878) 0
x(58_879) 0
x(58_880) 1
x(58_881) 0
x(58_882) 0
x(59_883) 0
x(59_884) 0
x(59_885) 0
x(59_886) 0
x(59_887) 0
x(59_888) 0
x(59_889) 0
x(59_890) 0
x(59_891) 0
x(59_892) 0
x(59_893) 0
x(59_894) 0
x(59_895) 0
x(59_896) 0
x(59_897) 1
x(59_898) 0
x(59_899) 0
x(60_900) 0
x(60_901) 0
x(60_902) 0
x(60_903) 0
x(60_904) 1
x(60_905) 0
x(60_906) 0
x(60_907) 0
x(60_908) 0
x(60_909) 0
x(60_910) 0
x(60_911) 0
x(61_912) 0
x(61_913) 0
x(61_914) 0
x(61_915) 0
x(61_916) 0
x(61_917) 0
x(61_918) 1
x(61_919) 0
x(61_920) 0
x(61_921) 0
x(61_922) 0
x(61_923) 0
x(61_924) 0
x(61_925) 0
x(61_926) 0
x(61_927) 0
x(61_928) 0
x(61_929) 0
x(61_930) 0
x(62_931) 1
x(62_932) 0
x(62_933) 0
x(62_934) 0
x(62_935) 0
x(62_936) 0
x(62_937) 0
x(62_938) 0
x(62_939) 0
x(62_940) 0
x(62_941) 0
x(63_942) 0
x(63_943) 0
x(63_944) 0
x(63_945) 0
x(63_946) 0
x(63_947) 0
x(63_948) 0
x(63_949) 1
x(63_950) 0
x(63_951) 0
x(63_952) 0
x(63_953) 0
x(63_954) 0
x(63_955) 0
x(63_956) 0
x(63_957) 0
x(63_958) 0
x_1_0 3.4304558092169464e+02
s_1_0 0
z_1_0 0
x_1_1 3.4309160814248025e+02
s_1_1 0
z_1_1 0
x_1_2 3.4495586402015761e+02
s_1_2 0
z_1_2 0
x_1_3 3.4372971885465086e+02
s_1_3 0
z_1_3 0
x_1_4 3.4267584011424333e+02
s_1_4 0
z_1_4 0
x_1_5 3.4500633253902197e+02
s_1_5 0
z_1_5 0
x_1_6 3.4363474534824491e+02
s_1_6 0
z_1_6 0
x_1_7 3.4195944695174694e+02
s_1_7 0
z_1_7 0
x_1_8 3.4087289622239769e+02
s_1_8 0
z_1_8 0
x_1_9 345.047322913073
s_1_9 0
z_1_9 0
x_1_10 0
s_1_10 1.4654009660007432e+00
z_1_10 1
x_1_11 0
s_1_11 1.3709382087399717e+00
z_1_11 1
x_1_12 344.519836188294
s_1_12 0
z_1_12 0
x_1_13 0
s_1_13 2.7854661369929090e-01
z_1_13 1
x_1_14 0
s_1_14 1.1719938879832625e-01
z_1_14 1
x_1_15 3.4517077916674316e+02
s_1_15 0
z_1_15 0
x_1_16 3.4108104768279009e+02
s_1_16 0
z_1_16 0
x_1_17 0
s_1_17 1.0350487754913047e+00
z_1_17 1
x_1_18 0
s_1_18 7.4236042617121711e-01
z_1_18 1
x_1_19 3.3821404414135031e+02
s_1_19 0
z_1_19 0
x_1_20 0
s_1_20 8.0028089875122532e-01
z_1_20 1
x_1_21 0
s_1_21 1.1764648672542535e+00
z_1_21 1
x_1_22 0
s_1_22 9.5970472382032312e-01
z_1_22 1
x_1_23 3.4413942233892158e+02
s_1_23 0
z_1_23 0
x_1_24 3.4520965610817075e+02
s_1_24 0
z_1_24 0
x_1_25 3.4200027307961136e+02
s_1_25 0
z_1_25 0
x_1_26 3.4141405250877142e+02
s_1_26 0
z_1_26 0
x_1_27 0
s_1_27 6.9773195683956146e-01
z_1_27 1
x_1_28 0
s_1_28 1.1502616310026497e+00
z_1_28 1
x_1_29 0
s_1_29 1.5857894280925393e+00
z_1_29 1
x_1_30 3.4331673480942845e+02
s_1_30 0
z_1_30 0
x_1_31 3.4246560447892989e+02
s_1_31 0
z_1_31 0
x_1_32 0
s_1_32 0.67568198988738
z_1_32 1
x_1_33 0
s_1_33 1.2896979668003041e+00
z_1_33 1
x_1_34 3.4162016164511442e+02
s_1_34 0
z_1_34 0
x_1_35 3.4371280194260180e+02
s_1_35 0
z_1_35 0
x_1_36 0
s_1_36 1.4219550660054665e+00
z_1_36 1
x_1_37 0
s_1_37 7.9169455400187871e-01
z_1_37 1
x_1_38 0
s_1_38 8.9501354796811938e-01
z_1_38 1
x_1_39 0
s_1_39 0.86140848393552
z_1_39 1
x_1_40 0
s_1_40 1.1888336547417566e+00
z_1_40 1
x_1_41 3.4197868647985160e+02
s_1_41 0
z_1_41 0
x_1_42 0
s_1_42 8.8311381108360365e-01
z_1_42 1
x_1_43 0
s_1_43 0.83709788240958
z_1_43 1
x_1_44 3.4250052542425692e+02
s_1_44 0
z_1_44 0
x_1_45 0
s_1_45 0.697615620563738
z_1_45 1
x_1_46 0
s_1_46 1.7160039726441028e+00
z_1_46 1
x_1_47 3.4295964417443611e+02
s_1_47 0
z_1_47 0
x_1_48 0
s_1_48 1.4675565848883707e+00
z_1_48 1
x_1_49 3.4413031704351306e+02
s_1_49 0
z_1_49 0
x_1_50 3.4520671183988452e+02
s_1_50 0
z_1_50 0
x_1_51 0
s_1_51 7.2648081427905709e-01
z_1_51 1
x_1_52 3.4541457201587036e+02
s_1_52 0
z_1_52 0
x_1_53 3.4506057192757726e+02
s_1_53 0
z_1_53 0
x_1_54 3.4382001172564924e+02
s_1_54 0
z_1_54 0
x_1_55 3.4515410077199340e+02
s_1_55 0
z_1_55 0
x_1_56 0
s_1_56 9.3697552327648737e-01
z_1_56 1
x_1_57 0
s_1_57 1.0647148737807584e+00
z_1_57 1
x_1_58 0
s_1_58 8.6835449899081141e-01
z_1_58 1
x_1_59 0
s_1_59 5.3224409202812240e-01
z_1_59 1
x_1_60 0
s_1_60 1.3836826940532774e+00
z_1_60 1
x_1_61 3.4164800535142422e+02
s_1_61 0
z_1_61 0
x_1_62 3.4296977117657661e+02
s_1_62 0
z_1_62 0
x_1_63 0
s_1_63 6.4446676094667055e-01
z_1_63 1
x_1_64 0
s_1_64 1.4895791064482182e+00
z_1_64 1
x_1_65 0
s_1_65 7.4097137691569515e-01
z_1_65 1
x_1_66 3.4086240177508444e+02
s_1_66 0
z_1_66 0
x_1_67 3.4326797241717577e+02
s_1_67 0
z_1_67 0
x_1_68 3.4148626688122749e+02
s_1_68 0
z_1_68 0
x_1_69 0
s_1_69 8.9167198422364891e-01
z_1_69 1
x_1_70 3.4448214070871472e+02
s_1_70 0
z_1_70 0
x_1_71 3.4289520808123052e+02
s_1_71 0
z_1_71 0
x_1_72 0
s_1_72 5.0074066661181860e-01
z_1_72 1
x_1_73 0
s_1_73 1.4647082320880145e+00
z_1_73 1
x_1_74 0
s_1_74 9.8961052807112537e-01
z_1_74 1
x_1_75 3.4330214526690543e+02
s_1_75 0
z_1_75 0
x_1_76 0
s_1_76 1.5626029035483953e+00
z_1_76 1
x_1_77 3.4571961990743876e+02
s_1_77 0
z_1_77 0
x_1_78 3.4263984105736017e+02
s_1_78 0
z_1_78 0
x_1_79 0
s_1_79 1.1056914957880508e+00
z_1_79 1
x_1_80 0
s_1_80 1.1294225125748198e+00
z_1_80 1
x_1_81 3.4257077426696196e+02
s_1_81 0
z_1_81 0
x_1_82 0
s_1_82 1.1666789656155743e+00
z_1_82 1
x_1_83 3.4130331566091627e+02
s_1_83 0
z_1_83 0
x_1_84 0
s_1_84 7.3724354553633020e-01
z_1_84 1
x_1_85 0
s_1_85 1.5766188380075619e+00
z_1_85 1
x_1_86 0
s_1_86 8.8562789728166535e-01
z_1_86 1
x_1_87 0
s_1_87 1.8226406909525394e-01
z_1_87 1
x_1_88 3.4410196147067472e+02
s_1_88 0
z_1_88 0
x_1_89 3.4173629468120635e+02
s_1_89 0
z_1_89 0
x_1_90 3.4369598741881782e+02
s_1_90 0
z_1_90 0
x_1_91 344.258253345266
s_1_91 0
z_1_91 0
x_1_92 3.4450769330840558e+02
s_1_92 0
z_1_92 0
x_1_93 0
s_1_93 1.0083620310178958e+00
z_1_93 1
x_1_94 3.4537929825484753e+02
s_1_94 0
z_1_94 0
x_1_95 0
s_1_95 6.9615314526890870e-01
z_1_95 1
x_1_96 0
s_1_96 1.5270198379294015e+00
z_1_96 1
x_1_97 3.4326211753906682e+02
s_1_97 0
z_1_97 0
x_1_98 0
s_1_98 1.1238963275682181e+00
z_1_98 1
x_1_99 3.4496207278221846e+02
s_1_99 0
z_1_99 0
x_1_100 3.4245676104538143e+02
s_1_100 0
z_1_100 0
x_1_101 0
s_1_101 8.6899197375169024e-01
z_1_101 1
x_1_102 0
s_1_102 9.9352724962227512e-01
z_1_102 1
x_1_103 0
s_1_103 1.0149578310847573e+00
z_1_103 1
x_1_104 0
s_1_104 1.1188586241987650e+00
z_1_104 1
x_1_105 3.4367735511530191e+02
s_1_105 0
z_1_105 0
x_1_106 0
s_1_106 1.1599065945483744e+00
z_1_106 1
x_1_107 3.4521635768562555e+02
s_1_107 0
z_1_107 0
x_1_108 3.4443675243761390e+02
s_1_108 0
z_1_108 0
x_1_109 0
s_1_109 1.0118872229941189e+00
z_1_109 1
x_1_110 0
s_1_110 5.6666739565662283e-01
z_1_110 1
x_1_111 0
s_1_111 9.0814943611621857e-01
z_1_111 1
x_1_112 3.4161035725288093e+02
s_1_112 0
z_1_112 0
x_1_113 342.949834080413
s_1_113 0
z_1_113 0
x_1_114 0
s_1_114 1.6242375281290151e+00
z_1_114 1
x_1_115 0
s_1_115 1.0603564340854064e+00
z_1_115 1
x_1_116 0
s_1_116 1.1549058457458159e+00
z_1_116 1
x_1_117 0
s_1_117 1.4396107065840624e+00
z_1_117 1
x_1_118 3.4549109818413854e+02
s_1_118 0
z_1_118 0
x_1_119 0
s_1_119 6.2262220400225488e-01
z_1_119 1
x_1_120 3.4561682991497219e+02
s_1_120 0
z_1_120 0
x_1_121 0
s_1_121 1.3548880812304560e+00
z_1_121 1
x_1_122 3.4485959972627461e+02
s_1_122 0
z_1_122 0
x_1_123 0
s_1_123 1.3843615674995817e+00
z_1_123 1
x_1_124 3.4539917393401265e+02
s_1_124 0
z_1_124 0
x_1_125 0
s_1_125 9.9045968177961186e-01
z_1_125 1
x_1_126 0
s_1_126 0.808861969911959
z_1_126 1
x_1_127 0
s_1_127 6.4077922340948135e-01
z_1_127 1
x_1_128 3.4570962998643517e+02
s_1_128 0
z_1_128 0
x_1_129 0
s_1_129 1.0045459302491508e+00
z_1_129 1
x_1_130 0
s_1_130 1.7450703894719481e+00
z_1_130 1
x_1_131 344.996747482568
s_1_131 0
z_1_131 0
x_1_132 0
s_1_132 9.6933385578449816e-01
z_1_132 1
x_1_133 3.4432014055736363e+02
s_1_133 0
z_1_133 0
x_1_134 0
s_1_134 1.5881338719627820e+00
z_1_134 1
x_1_135 0
s_1_135 0.977882684499491
z_1_135 1
x_1_136 0
s_1_136 9.7591436351649463e-01
z_1_136 1
x_1_137 3.4511731064162450e+02
s_1_137 0
z_1_137 0
x_1_138 0
s_1_138 1.0691674510071607e+00
z_1_138 1
x_1_139 344.306363472715
s_1_139 0
z_1_139 0
x_1_140 3.4155833355057985e+02
s_1_140 0
z_1_140 0
x_1_141 3.4581888771615922e+02
s_1_141 0
z_1_141 0
x_1_142 0
s_1_142 1.2274514328455552e+00
z_1_142 1
x_1_143 0
s_1_143 1.0750274225429166e+00
z_1_143 1
x_1_144 0
s_1_144 0.862843561466434
z_1_144 1
x_1_145 0
s_1_145 1.5789337116293609e+00
z_1_145 1
x_1_146 0
s_1_146 0.686139722194639
z_1_146 1
x_1_147 0
s_1_147 1.5427804883802310e+00
z_1_147 1
x_1_148 0
s_1_148 1.1394893021933967e+00
z_1_148 1
x_1_149 3.4436853251140565e+02
s_1_149 0
z_1_149 0
x_1_150 0
s_1_150 1.4254490893217735e+00
z_1_150 1
x_1_151 3.4487700322899036e+02
s_1_151 0
z_1_151 0
x_1_152 3.4555346821621060e+02
s_1_152 0
z_1_152 0
x_1_153 0
s_1_153 1.0249002349301009e+00
z_1_153 1
x_1_154 0
s_1_154 1.5068401720636757e+00
z_1_154 1
x_1_155 0
s_1_155 1.2595243673422374e+00
z_1_155 1
x_1_156 3.4533049194049090e+02
s_1_156 0
z_1_156 0
x_1_157 3.4488284376822412e+02
s_1_157 0
z_1_157 0
x_1_158 3.4567311959201470e+02
s_1_158 0
z_1_158 0
x_1_159 3.4540692649129778e+02
s_1_159 0
z_1_159 0
x_2_0 2.0177421382611161e+05
