243/surrogate_problem/log/surrogate2_44.log

Gurobi 10.0.2 (linux64) logging started Thu Sep  7 10:02:55 2023

Set parameter LogFile to value "../surrogate_problem/log/surrogate2_44.log"
Set parameter Threads to value 30
Gurobi Optimizer version 10.0.2 build v10.0.2rc0 (linux64)

CPU model: Intel(R) Xeon(R) Platinum 8280 CPU @ 2.70GHz, instruction set [SSE2|AVX|AVX2|AVX512]
Thread count: 112 physical cores, 112 logical processors, using up to 30 threads

Optimize a model with 545 rows, 1440 columns and 155520 nonzeros
Model fingerprint: 0xb8de5ec5
Variable types: 321 continuous, 1119 integer (1119 binary)
Coefficient statistics:
  Matrix range     [6e-07, 1e+05]
  Objective range  [4e-01, 3e+01]
  Bounds range     [1e+00, 1e+00]
  RHS range        [3e-02, 1e+05]
Found heuristic solution: objective 242884.59624
Presolve removed 226 rows and 226 columns
Presolve time: 0.13s
Presolved: 319 rows, 1214 columns, 78676 nonzeros
Variable types: 170 continuous, 1044 integer (1044 binary)

Root relaxation: objective 2.025669e+05, 154 iterations, 0.01 seconds (0.01 work units)

    Nodes    |    Current Node    |     Objective Bounds      |     Work
 Expl Unexpl |  Obj  Depth IntInf | Incumbent    BestBd   Gap | It/Node Time

     0     0 202566.902    0    5 242884.596 202566.902  16.6%     -    0s
H    0     0                    202566.91883 202566.902  0.00%     -    0s
     0     0 202566.902    0    5 202566.919 202566.902  0.00%     -    0s

Explored 1 nodes (154 simplex iterations) in 0.20 seconds (0.15 work units)
Thread count was 30 (of 112 available processors)

Solution count 2: 202567 242885 

Optimal solution found (tolerance 1.00e-04)
Best objective 2.025669188261e+05, best bound 2.025669188261e+05, gap 0.0000%

Gurobi 10.0.2 (linux64) logging started Fri Sep  8 15:25:45 2023

Set parameter LogFile to value "../surrogate_problem/log/surrogate2_44.log"
Gurobi Optimizer version 10.0.2 build v10.0.2rc0 (linux64)

CPU model: Intel(R) Xeon(R) Platinum 8280 CPU @ 2.70GHz, instruction set [SSE2|AVX|AVX2|AVX512]
Thread count: 112 physical cores, 112 logical processors, using up to 30 threads

Optimize a model with 545 rows, 1440 columns and 155520 nonzeros
Model fingerprint: 0xb8de5ec5
Variable types: 321 continuous, 1119 integer (1119 binary)
Coefficient statistics:
  Matrix range     [6e-07, 1e+05]
  Objective range  [4e-01, 3e+01]
  Bounds range     [1e+00, 1e+00]
  RHS range        [3e-02, 1e+05]
Found heuristic solution: objective 242884.59624
Presolve removed 226 rows and 226 columns
Presolve time: 0.13s
Presolved: 319 rows, 1214 columns, 78676 nonzeros
Variable types: 170 continuous, 1044 integer (1044 binary)

Root relaxation: objective 2.025669e+05, 154 iterations, 0.01 seconds (0.01 work units)

    Nodes    |    Current Node    |     Objective Bounds      |     Work
 Expl Unexpl |  Obj  Depth IntInf | Incumbent    BestBd   Gap | It/Node Time

     0     0 202566.902    0    5 242884.596 202566.902  16.6%     -    0s
H    0     0                    202566.91883 202566.902  0.00%     -    0s
     0     0 202566.902    0    5 202566.919 202566.902  0.00%     -    0s

Explored 1 nodes (154 simplex iterations) in 0.22 seconds (0.15 work units)
Thread count was 30 (of 112 available processors)

Solution count 2: 202567 242885 

Optimal solution found (tolerance 1.00e-04)
Best objective 2.025669188261e+05, best bound 2.025669188261e+05, gap 0.0000%
